37
0 4 2
1 5 4
2 6 4
3 8 0
4 8 5
5 9 2
6 9 8
7 11 7
8 12 3
9 12 4
10 12 7
11 13 0
12 13 1
13 13 12
14 15 0
15 15 1
16 15 10
17 16 1
18 16 13
19 17 5
20 17 9
21 18 2
22 18 9
23 18 11
24 18 17
25 19 3
26 19 15
27 20 5
28 21 12
29 21 17
30 22 3
31 22 6
32 22 13
33 22 21
34 23 4
35 23 20
36 23 22
